proyfinal/src/viki/013/experimentInOfficeAgust.take6.output/f792d619-2bad-4ef7-ae5b-a7f3013eda6b.als.dat
{'cnf.clauses': '118081',
 'cnf.totvars': '69608',
 'conflict literals': '134',
 'conflicts': '56',
 'decisions': '8506',
 'memused.mb': '15.42',
 'outcome': 'UNSAT',
 'propagations': '51767',
 'restarts': '1',
 'solver.msecs': 32,
 'task.msecs': 111}
