proyfinal/src/viki/013/experimentInOfficeAgust.take6.output/f792d619-2bad-4ef7-ae5b-a7f3013eda6b.als.out
Reading from standard input... Use '--help' for help.
============================[ Problem Statistics ]=============================
|                                                                             |
|  Number of variables:         69608                                         |
|  Number of clauses:          118081                                         |
|  Parse time:                   0.02 s                                       |
|                                                                             |
============================[ Search Statistics ]==============================
| Conflicts |          ORIGINAL         |          LEARNT          | Progress |
|           |    Vars  Clauses Literals |    Limit  Clauses Lit/Cl |          |
===============================================================================
===============================================================================
restarts              : 1
conflicts             : 56             (1729 /sec)
decisions             : 8506           (0.00 % random) (262644 /sec)
propagations          : 51767          (1598438 /sec)
conflict literals     : 134            (1.47 % deleted)
Memory used           : 15.42 MB
CPU time              : 0.032386 s

UNSATISFIABLE
